(set-logic QF_S)
(declare-fun var0 () String)
(declare-fun var1 () Int)
(declare-fun var2 () Bool)
(declare-fun var3 () String)
(declare-fun var4 () Int)
(declare-fun var5 () Bool)
(declare-fun var6 () String)
(declare-fun var7 () Int)
(declare-fun var8 () Bool)
(assert (> (str.indexof (str.replace var6 var0 var0) (str.replace "gAvfs&]a3<" var3 var0) (str.len var0)) (str.indexof var3 "l\\xfoVXfRa" var7)))
(assert (>= (str.indexof (str.replace var0 var0 var3) (str.substr var0 var7 var4) (str.indexof var0 "lnfG/}v?t|" var7)) (str.indexof (str.replace var3 var3 var3) (str.substr var3 var1 var1) (str.len var6))))
(assert (< (str.indexof (str.at var6 var4) (str.replace var3 var0 var3) (str.indexof "'p]UQKU_Hx" var0 var1)) (str.len var3)))
(assert (<= 9 var1))
(check-sat)